35
1 0 5
2 0 1
2 1 2
3 0 4
3 1 5
3 2 2
4 0 4
4 1 1
4 2 3
4 3 2
5 0 1
5 1 1
5 2 2
5 3 1
5 4 1
6 0 1
6 1 3
6 2 2
6 3 1
6 4 2
6 5 5
7 0 5
7 1 4
7 2 1
7 3 3
7 4 2
7 5 5
7 6 1
8 0 4
8 1 2
8 2 5
8 3 2
8 4 1
8 5 2
8 6 3
8 7 2
9 0 2
9 1 2
9 2 1
9 3 2
9 4 5
9 5 3
9 6 1
9 7 5
9 8 4
10 0 2
10 1 4
10 2 1
10 3 1
10 4 5
10 5 4
10 6 5
10 7 5
10 8 1
10 9 1
11 0 1
11 1 1
11 2 3
11 3 2
11 4 4
11 5 1
11 6 3
11 7 1
11 8 1
11 9 3
11 10 1
12 0 5
12 1 1
12 2 4
12 3 4
12 4 1
12 5 5
12 6 4
12 7 1
12 8 1
12 9 4
12 10 2
12 11 5
13 0 5
13 1 1
13 2 5
13 3 2
13 4 3
13 5 1
13 6 3
13 7 1
13 8 3
13 9 5
13 10 1
13 11 4
13 12 3
14 0 4
14 1 5
14 2 4
14 3 2
14 4 1
14 5 5
14 6 1
14 7 1
14 8 1
14 9 4
14 10 1
14 11 1
14 12 5
14 13 5
15 0 3
15 1 1
15 2 1
15 3 4
15 4 3
15 5 5
15 6 4
15 7 2
15 8 3
15 9 4
15 10 5
15 11 4
15 12 2
15 13 2
15 14 3
16 0 4
16 1 4
16 2 3
16 3 2
16 4 5
16 5 5
16 6 1
16 7 1
16 8 2
16 9 3
16 10 4
16 11 5
16 12 3
16 13 1
16 14 5
16 15 4
17 0 4
17 1 4
17 2 5
17 3 2
17 4 5
17 5 1
17 6 3
17 7 1
17 8 3
17 9 4
17 10 1
17 11 1
17 12 3
17 13 3
17 14 5
17 15 1
17 16 4
18 0 3
18 1 5
18 2 5
18 3 5
18 4 2
18 5 3
18 6 1
18 7 4
18 8 2
18 9 1
18 10 3
18 11 1
18 12 3
18 13 2
18 14 2
18 15 5
18 16 1
18 17 5
19 0 1
19 1 4
19 2 5
19 3 3
19 4 3
19 5 1
19 6 4
19 7 3
19 8 3
19 9 4
19 10 4
19 11 4
19 12 1
19 13 5
19 14 5
19 15 5
19 16 1
19 17 4
19 18 3
20 0 5
20 1 2
20 2 3
20 3 3
20 4 2
20 5 4
20 6 3
20 7 3
20 8 2
20 9 2
20 10 3
20 11 1
20 12 4
20 13 2
20 14 3
20 15 3
20 16 1
20 17 1
20 18 5
20 19 2
21 0 4
21 1 1
21 2 3
21 3 3
21 4 5
21 5 5
21 6 5
21 7 1
21 8 4
21 9 2
21 10 5
21 11 1
21 12 5
21 13 5
21 14 2
21 15 5
21 16 1
21 17 2
21 18 5
21 19 2
21 20 3
22 0 5
22 1 2
22 2 1
22 3 1
22 4 1
22 5 4
22 6 4
22 7 2
22 8 5
22 9 2
22 10 4
22 11 5
22 12 4
22 13 5
22 14 4
22 15 3
22 16 4
22 17 4
22 18 5
22 19 4
22 20 4
22 21 1
23 0 2
23 1 1
23 2 4
23 3 1
23 4 4
23 5 4
23 6 3
23 7 4
23 8 4
23 9 2
23 10 4
23 11 5
23 12 2
23 13 2
23 14 1
23 15 1
23 16 4
23 17 3
23 18 3
23 19 5
23 20 2
23 21 1
23 22 2
24 0 3
24 1 2
24 2 1
24 3 5
24 4 2
24 5 3
24 6 4
24 7 5
24 8 2
24 9 4
24 10 2
24 11 2
24 12 2
24 13 1
24 14 3
24 15 5
24 16 1
24 17 1
24 18 5
24 19 5
24 20 1
24 21 3
24 22 4
24 23 4
25 0 2
25 1 3
25 2 1
25 3 5
25 4 5
25 5 5
25 6 3
25 7 2
25 8 2
25 9 3
25 10 3
25 11 3
25 12 2
25 13 5
25 14 5
25 15 2
25 16 2
25 17 3
25 18 2
25 19 3
25 20 1
25 21 2
25 22 5
25 23 2
25 24 3
26 0 2
26 1 3
26 2 1
26 3 3
26 4 4
26 5 3
26 6 2
26 7 5
26 8 2
26 9 3
26 10 3
26 11 3
26 12 1
26 13 3
26 14 1
26 15 3
26 16 4
26 17 3
26 18 2
26 19 5
26 20 2
26 21 3
26 22 3
26 23 1
26 24 5
26 25 4
27 0 5
27 1 4
27 2 4
27 3 5
27 4 3
27 5 3
27 6 3
27 7 3
27 8 5
27 9 3
27 10 4
27 11 5
27 12 1
27 13 3
27 14 3
27 15 3
27 16 3
27 17 4
27 18 5
27 19 3
27 20 1
27 21 4
27 22 5
27 23 4
27 24 1
27 25 3
27 26 2
28 0 4
28 1 2
28 2 5
28 3 4
28 4 4
28 5 2
28 6 1
28 7 5
28 8 2
28 9 2
28 10 2
28 11 5
28 12 2
28 13 2
28 14 4
28 15 4
28 16 3
28 17 3
28 18 4
28 19 2
28 20 5
28 21 2
28 22 3
28 23 5
28 24 4
28 25 1
28 26 4
28 27 1
29 0 4
29 1 1
29 2 5
29 3 3
29 4 4
29 5 2
29 6 5
29 7 2
29 8 3
29 9 2
29 10 3
29 11 1
29 12 5
29 13 2
29 14 2
29 15 3
29 16 5
29 17 1
29 18 5
29 19 1
29 20 3
29 21 3
29 22 5
29 23 5
29 24 1
29 25 4
29 26 2
29 27 1
29 28 1
30 0 4
30 1 1
30 2 5
30 3 1
30 4 5
30 5 2
30 6 3
30 7 3
30 8 4
30 9 5
30 10 2
30 11 1
30 12 3
30 13 3
30 14 2
30 15 5
30 16 2
30 17 3
30 18 5
30 19 2
30 20 3
30 21 3
30 22 2
30 23 5
30 24 5
30 25 1
30 26 5
30 27 2
30 28 4
30 29 5
31 0 3
31 1 5
31 2 3
31 3 4
31 4 2
31 5 4
31 6 4
31 7 4
31 8 2
31 9 5
31 10 3
31 11 4
31 12 3
31 13 3
31 14 3
31 15 1
31 16 3
31 17 5
31 18 4
31 19 4
31 20 4
31 21 3
31 22 1
31 23 1
31 24 3
31 25 5
31 26 5
31 27 2
31 28 5
31 29 3
31 30 5
32 0 2
32 1 4
32 2 5
32 3 1
32 4 1
32 5 5
32 6 5
32 7 1
32 8 1
32 9 4
32 10 1
32 11 3
32 12 2
32 13 3
32 14 5
32 15 1
32 16 5
32 17 4
32 18 5
32 19 5
32 20 5
32 21 2
32 22 2
32 23 4
32 24 1
32 25 4
32 26 2
32 27 5
32 28 2
32 29 1
32 30 2
32 31 2
33 0 5
33 1 1
33 2 3
33 3 4
33 4 4
33 5 2
33 6 5
33 7 1
33 8 1
33 9 4
33 10 4
33 11 1
33 12 5
33 13 3
33 14 3
33 15 2
33 16 4
33 17 1
33 18 3
33 19 1
33 20 3
33 21 4
33 22 5
33 23 1
33 24 2
33 25 2
33 26 3
33 27 5
33 28 1
33 29 5
33 30 5
33 31 2
33 32 3
34 0 3
34 1 3
34 2 3
34 3 3
34 4 5
34 5 2
34 6 5
34 7 4
34 8 5
34 9 2
34 10 4
34 11 5
34 12 1
34 13 4
34 14 1
34 15 3
34 16 4
34 17 3
34 18 1
34 19 3
34 20 3
34 21 1
34 22 1
34 23 5
34 24 3
34 25 5
34 26 2
34 27 3
34 28 1
34 29 3
34 30 1
34 31 4
34 32 5
34 33 4
